solution status: time limit reached
objective value:                                    9
C0002                                               1 	(obj:0)
C0031                                               1 	(obj:0)
C0052                                               1 	(obj:0)
C0068                                               1 	(obj:0)
C0093                                               1 	(obj:0)
C0118                                               1 	(obj:0)
C0134                                               1 	(obj:0)
C0161                                               1 	(obj:0)
C0183                                               1 	(obj:0)
C0205                                               1 	(obj:0)
C0229                                               1 	(obj:0)
C0250                                               1 	(obj:0)
C0266                                               1 	(obj:0)
C0295                                               1 	(obj:0)
C0317                                               1 	(obj:0)
C0333                                               1 	(obj:0)
C0357                                               1 	(obj:0)
C0379                                               1 	(obj:0)
C0397                                               1 	(obj:0)
C0425                                               1 	(obj:0)
C0446                                               1 	(obj:0)
C0470                                               1 	(obj:0)
C0490                                               1 	(obj:0)
C0510                                               1 	(obj:0)
C0534                                               1 	(obj:0)
C0553                                               1 	(obj:0)
C0576                                               1 	(obj:0)
C0600                                               1 	(obj:0)
C0617                                               1 	(obj:0)
C0645                                               1 	(obj:0)
C0664                                               1 	(obj:0)
C0688                                               1 	(obj:0)
C0705                                               1 	(obj:0)
C0729                                               1 	(obj:0)
C0749                                               1 	(obj:0)
C0771                                               1 	(obj:1)
C0772                                               1 	(obj:1)
C0773                                               1 	(obj:1)
C0774                                               1 	(obj:1)
C0775                                               1 	(obj:1)
C0776                                               1 	(obj:1)
C0777                                               1 	(obj:1)
C0778                                               1 	(obj:1)
C0779                                               1 	(obj:1)
